(set-info :smt-lib-version 2.6)
(set-logic UF)
(set-info :source |Benchmarks from the paper: "Extending Sledgehammer with SMT Solvers" by Jasmin Blanchette, Sascha Bohme, and Lawrence C. Paulson, CADE 2011.  Translated to SMT2 by Andrew Reynolds and Morgan Deters.|)
(set-info :category "industrial")
(set-info :status unsat)
(declare-sort S1 0)
(declare-sort S2 0)
(declare-sort S3 0)
(declare-sort S4 0)
(declare-sort S5 0)
(declare-sort S6 0)
(declare-sort S7 0)
(declare-sort S8 0)
(declare-sort S9 0)
(declare-sort S10 0)
(declare-sort S11 0)
(declare-sort S12 0)
(declare-sort S13 0)
(declare-sort S14 0)
(declare-sort S15 0)
(declare-sort S16 0)
(declare-sort S17 0)
(declare-sort S18 0)
(declare-sort S19 0)
(declare-sort S20 0)
(declare-sort S21 0)
(declare-sort S22 0)
(declare-sort S23 0)
(declare-sort S24 0)
(declare-fun f1 () S1)
(declare-fun f2 () S1)
(declare-fun f3 () S1)
(declare-fun f4 (S3) S1)
(declare-fun f5 () S3)
(declare-fun f6 (S3) S1)
(declare-fun f7 () S4)
(declare-fun f8 (S5 S4) S4)
(declare-fun f9 (S6 S2) S5)
(declare-fun f10 () S6)
(declare-fun f11 () S8)
(declare-fun f12 (S9 S8) S8)
(declare-fun f13 (S10 S7) S9)
(declare-fun f14 () S10)
(declare-fun f15 () S11)
(declare-fun f16 (S12 S11) S11)
(declare-fun f17 (S13 S8) S12)
(declare-fun f18 () S13)
(declare-fun f19 (S14 S4) S5)
(declare-fun f20 () S14)
(declare-fun f21 (S15 S8) S9)
(declare-fun f22 () S15)
(declare-fun f23 (S16 S11) S12)
(declare-fun f24 () S16)
(declare-fun f25 () S6)
(declare-fun f26 () S10)
(declare-fun f27 () S13)
(declare-fun f28 (S17 S4) S1)
(declare-fun f29 (S18 S8) S1)
(declare-fun f30 (S19 S11) S1)
(declare-fun f31 (S4) S1)
(declare-fun f32 (S8) S1)
(declare-fun f33 (S11) S1)
(declare-fun f34 () S5)
(declare-fun f35 () S9)
(declare-fun f36 () S12)
(declare-fun f37 (S4) S17)
(declare-fun f38 (S8) S18)
(declare-fun f39 (S11) S19)
(declare-fun f40 () S14)
(declare-fun f41 () S15)
(declare-fun f42 () S16)
(declare-fun f43 (S20 S4) S2)
(declare-fun f44 () S20)
(declare-fun f45 (S21 S8) S7)
(declare-fun f46 () S21)
(declare-fun f47 (S22 S11) S8)
(declare-fun f48 () S22)
(declare-fun f49 (S23 S2) S1)
(declare-fun f50 (S4) S23)
(declare-fun f51 (S24 S7) S1)
(declare-fun f52 (S8) S24)
(declare-fun f53 (S11) S18)
(declare-fun f54 (S23) S17)
(declare-fun f55 (S24) S18)
(declare-fun f56 (S18) S19)
(declare-fun f57 (S2) S17)
(declare-fun f58 (S8) S19)
(declare-fun f59 (S7) S18)
(assert (not (= f1 f2)))
(assert (not (= f3 f1)))
(assert (forall ((?v0 S2) (?v1 S2)) (=> (not (= ?v0 ?v1)) (= f3 f1))))
(assert (exists ((?v0 S2) (?v1 S2) (?v2 S2)) (distinct ?v0 ?v1 ?v2)))
(assert (exists ((?v0 S2) (?v1 S2) (?v2 S2)) (distinct ?v0 ?v1 ?v2)))
(assert (= (f4 f5) f1))
(assert (= (f6 f5) f1))
(assert (forall ((?v0 S2) (?v1 S2)) (=> (not (= ?v0 ?v1)) (exists ((?v2 S2)) (distinct ?v0 ?v1 ?v2)))))
(assert (forall ((?v0 S2) (?v1 S4)) (not (= f7 (f8 (f9 f10 ?v0) ?v1)))))
(assert (forall ((?v0 S7) (?v1 S8)) (not (= f11 (f12 (f13 f14 ?v0) ?v1)))))
(assert (forall ((?v0 S8) (?v1 S11)) (not (= f15 (f16 (f17 f18 ?v0) ?v1)))))
(assert (forall ((?v0 S2) (?v1 S4)) (not (= (f8 (f9 f10 ?v0) ?v1) f7))))
(assert (forall ((?v0 S7) (?v1 S8)) (not (= (f12 (f13 f14 ?v0) ?v1) f11))))
(assert (forall ((?v0 S8) (?v1 S11)) (not (= (f16 (f17 f18 ?v0) ?v1) f15))))
(assert (forall ((?v0 S4)) (= (not (= ?v0 f7)) (exists ((?v1 S2) (?v2 S4)) (= ?v0 (f8 (f9 f10 ?v1) ?v2))))))
(assert (forall ((?v0 S8)) (= (not (= ?v0 f11)) (exists ((?v1 S7) (?v2 S8)) (= ?v0 (f12 (f13 f14 ?v1) ?v2))))))
(assert (forall ((?v0 S11)) (= (not (= ?v0 f15)) (exists ((?v1 S8) (?v2 S11)) (= ?v0 (f16 (f17 f18 ?v1) ?v2))))))
(assert (forall ((?v0 S4)) (=> (=> (= ?v0 f7) false) (=> (forall ((?v1 S2) (?v2 S4)) (=> (= ?v0 (f8 (f9 f10 ?v1) ?v2)) false)) false))))
(assert (forall ((?v0 S8)) (=> (=> (= ?v0 f11) false) (=> (forall ((?v1 S7) (?v2 S8)) (=> (= ?v0 (f12 (f13 f14 ?v1) ?v2)) false)) false))))
(assert (forall ((?v0 S11)) (=> (=> (= ?v0 f15) false) (=> (forall ((?v1 S8) (?v2 S11)) (=> (= ?v0 (f16 (f17 f18 ?v1) ?v2)) false)) false))))
(assert (forall ((?v0 S4) (?v1 S2)) (not (= ?v0 (f8 (f9 f10 ?v1) ?v0)))))
(assert (forall ((?v0 S11) (?v1 S8)) (not (= ?v0 (f16 (f17 f18 ?v1) ?v0)))))
(assert (forall ((?v0 S8) (?v1 S7)) (not (= ?v0 (f12 (f13 f14 ?v1) ?v0)))))
(assert (forall ((?v0 S2) (?v1 S4)) (not (= (f8 (f9 f10 ?v0) ?v1) ?v1))))
(assert (forall ((?v0 S8) (?v1 S11)) (not (= (f16 (f17 f18 ?v0) ?v1) ?v1))))
(assert (forall ((?v0 S7) (?v1 S8)) (not (= (f12 (f13 f14 ?v0) ?v1) ?v1))))
(assert (forall ((?v0 S2) (?v1 S4) (?v2 S2) (?v3 S4)) (= (= (f8 (f9 f10 ?v0) ?v1) (f8 (f9 f10 ?v2) ?v3)) (and (= ?v0 ?v2) (= ?v1 ?v3)))))
(assert (forall ((?v0 S8) (?v1 S11) (?v2 S8) (?v3 S11)) (= (= (f16 (f17 f18 ?v0) ?v1) (f16 (f17 f18 ?v2) ?v3)) (and (= ?v0 ?v2) (= ?v1 ?v3)))))
(assert (forall ((?v0 S7) (?v1 S8) (?v2 S7) (?v3 S8)) (= (= (f12 (f13 f14 ?v0) ?v1) (f12 (f13 f14 ?v2) ?v3)) (and (= ?v0 ?v2) (= ?v1 ?v3)))))
(assert (forall ((?v0 S2) (?v1 S4)) (let ((?v_0 (f8 (f9 f10 ?v0) ?v1))) (= (f8 (f19 f20 ?v_0) f7) ?v_0))))
(assert (forall ((?v0 S7) (?v1 S8)) (let ((?v_0 (f12 (f13 f14 ?v0) ?v1))) (= (f12 (f21 f22 ?v_0) f11) ?v_0))))
(assert (forall ((?v0 S8) (?v1 S11)) (let ((?v_0 (f16 (f17 f18 ?v0) ?v1))) (= (f16 (f23 f24 ?v_0) f15) ?v_0))))
(assert (forall ((?v0 S2)) (= (f8 (f9 f25 ?v0) f7) (f8 (f9 f10 ?v0) f7))))
(assert (forall ((?v0 S7)) (= (f12 (f13 f26 ?v0) f11) (f12 (f13 f14 ?v0) f11))))
(assert (forall ((?v0 S8)) (= (f16 (f17 f27 ?v0) f15) (f16 (f17 f18 ?v0) f15))))
(assert (forall ((?v0 S4) (?v1 S17)) (=> (not (= ?v0 f7)) (=> (forall ((?v2 S2)) (= (f28 ?v1 (f8 (f9 f10 ?v2) f7)) f1)) (=> (forall ((?v2 S2) (?v3 S4)) (=> (not (= ?v3 f7)) (=> (= (f28 ?v1 ?v3) f1) (= (f28 ?v1 (f8 (f9 f10 ?v2) ?v3)) f1)))) (= (f28 ?v1 ?v0) f1))))))
(assert (forall ((?v0 S8) (?v1 S18)) (=> (not (= ?v0 f11)) (=> (forall ((?v2 S7)) (= (f29 ?v1 (f12 (f13 f14 ?v2) f11)) f1)) (=> (forall ((?v2 S7) (?v3 S8)) (=> (not (= ?v3 f11)) (=> (= (f29 ?v1 ?v3) f1) (= (f29 ?v1 (f12 (f13 f14 ?v2) ?v3)) f1)))) (= (f29 ?v1 ?v0) f1))))))
(assert (forall ((?v0 S11) (?v1 S19)) (=> (not (= ?v0 f15)) (=> (forall ((?v2 S8)) (= (f30 ?v1 (f16 (f17 f18 ?v2) f15)) f1)) (=> (forall ((?v2 S8) (?v3 S11)) (=> (not (= ?v3 f15)) (=> (= (f30 ?v1 ?v3) f1) (= (f30 ?v1 (f16 (f17 f18 ?v2) ?v3)) f1)))) (= (f30 ?v1 ?v0) f1))))))
(assert (forall ((?v0 S2) (?v1 S4) (?v2 S2) (?v3 S4)) (let ((?v_0 (f9 f10 ?v0)) (?v_1 (f9 f10 ?v2))) (= (f8 (f19 f20 (f8 ?v_0 ?v1)) (f8 ?v_1 ?v3)) (f8 ?v_0 (f8 ?v_1 (f8 (f19 f20 ?v1) ?v3)))))))
(assert (forall ((?v0 S8) (?v1 S11) (?v2 S8) (?v3 S11)) (let ((?v_0 (f17 f18 ?v0)) (?v_1 (f17 f18 ?v2))) (= (f16 (f23 f24 (f16 ?v_0 ?v1)) (f16 ?v_1 ?v3)) (f16 ?v_0 (f16 ?v_1 (f16 (f23 f24 ?v1) ?v3)))))))
(assert (forall ((?v0 S7) (?v1 S8) (?v2 S7) (?v3 S8)) (let ((?v_0 (f13 f14 ?v0)) (?v_1 (f13 f14 ?v2))) (= (f12 (f21 f22 (f12 ?v_0 ?v1)) (f12 ?v_1 ?v3)) (f12 ?v_0 (f12 ?v_1 (f12 (f21 f22 ?v1) ?v3)))))))
(assert (forall ((?v0 S4)) (= (f8 (f19 f20 ?v0) f7) ?v0)))
(assert (forall ((?v0 S8)) (= (f12 (f21 f22 ?v0) f11) ?v0)))
(assert (forall ((?v0 S11)) (= (f16 (f23 f24 ?v0) f15) ?v0)))
(assert (forall ((?v0 S4)) (= (f8 (f19 f20 f7) ?v0) ?v0)))
(assert (forall ((?v0 S8)) (= (f12 (f21 f22 f11) ?v0) ?v0)))
(assert (forall ((?v0 S11)) (= (f16 (f23 f24 f15) ?v0) ?v0)))
(assert (forall ((?v0 S4)) (= (= ?v0 f7) (= (f31 ?v0) f1))))
(assert (forall ((?v0 S8)) (= (= ?v0 f11) (= (f32 ?v0) f1))))
(assert (forall ((?v0 S11)) (= (= ?v0 f15) (= (f33 ?v0) f1))))
(assert (forall ((?v0 S4)) (= (= (f31 ?v0) f1) (= ?v0 f7))))
(assert (forall ((?v0 S8)) (= (= (f32 ?v0) f1) (= ?v0 f11))))
(assert (forall ((?v0 S11)) (= (= (f33 ?v0) f1) (= ?v0 f15))))
(assert (= (= (f31 f7) f1) true))
(assert (= (= (f32 f11) f1) true))
(assert (= (= (f33 f15) f1) true))
(assert (forall ((?v0 S2) (?v1 S4)) (= (= (f31 (f8 (f9 f10 ?v0) ?v1)) f1) false)))
(assert (forall ((?v0 S8) (?v1 S11)) (= (= (f33 (f16 (f17 f18 ?v0) ?v1)) f1) false)))
(assert (forall ((?v0 S7) (?v1 S8)) (= (= (f32 (f12 (f13 f14 ?v0) ?v1)) f1) false)))
(assert (= (f8 f34 f7) f7))
(assert (= (f12 f35 f11) f11))
(assert (= (f16 f36 f15) f15))
(assert (forall ((?v0 S2) (?v1 S4)) (let ((?v_0 (f9 f10 ?v0))) (= (f8 f34 (f8 ?v_0 ?v1)) (ite (= ?v1 f7) f7 (f8 ?v_0 (f8 f34 ?v1)))))))
(assert (forall ((?v0 S7) (?v1 S8)) (let ((?v_0 (f13 f14 ?v0))) (= (f12 f35 (f12 ?v_0 ?v1)) (ite (= ?v1 f11) f11 (f12 ?v_0 (f12 f35 ?v1)))))))
(assert (forall ((?v0 S8) (?v1 S11)) (let ((?v_0 (f17 f18 ?v0))) (= (f16 f36 (f16 ?v_0 ?v1)) (ite (= ?v1 f15) f15 (f16 ?v_0 (f16 f36 ?v1)))))))
(assert (forall ((?v0 S4)) (= (= (f28 (f37 ?v0) f7) f1) (= (f31 ?v0) f1))))
(assert (forall ((?v0 S8)) (= (= (f29 (f38 ?v0) f11) f1) (= (f32 ?v0) f1))))
(assert (forall ((?v0 S11)) (= (= (f30 (f39 ?v0) f15) f1) (= (f33 ?v0) f1))))
(assert (forall ((?v0 S4) (?v1 S2)) (= (f8 f34 (f8 (f19 f40 ?v0) (f8 (f9 f10 ?v1) f7))) ?v0)))
(assert (forall ((?v0 S8) (?v1 S7)) (= (f12 f35 (f12 (f21 f41 ?v0) (f12 (f13 f14 ?v1) f11))) ?v0)))
(assert (forall ((?v0 S11) (?v1 S8)) (= (f16 f36 (f16 (f23 f42 ?v0) (f16 (f17 f18 ?v1) f15))) ?v0)))
(assert (forall ((?v0 S2) (?v1 S4)) (= (f43 f44 (f8 (f9 f10 ?v0) ?v1)) (ite (= ?v1 f7) ?v0 (f43 f44 ?v1)))))
(assert (forall ((?v0 S7) (?v1 S8)) (= (f45 f46 (f12 (f13 f14 ?v0) ?v1)) (ite (= ?v1 f11) ?v0 (f45 f46 ?v1)))))
(assert (forall ((?v0 S8) (?v1 S11)) (= (f47 f48 (f16 (f17 f18 ?v0) ?v1)) (ite (= ?v1 f15) ?v0 (f47 f48 ?v1)))))
(assert (forall ((?v0 S4) (?v1 S2)) (=> (not (= ?v0 f7)) (= (f43 f44 (f8 (f9 f10 ?v1) ?v0)) (f43 f44 ?v0)))))
(assert (forall ((?v0 S8) (?v1 S7)) (=> (not (= ?v0 f11)) (= (f45 f46 (f12 (f13 f14 ?v1) ?v0)) (f45 f46 ?v0)))))
(assert (forall ((?v0 S11) (?v1 S8)) (=> (not (= ?v0 f15)) (= (f47 f48 (f16 (f17 f18 ?v1) ?v0)) (f47 f48 ?v0)))))
(assert (forall ((?v0 S4) (?v1 S2)) (=> (= ?v0 f7) (= (f43 f44 (f8 (f9 f10 ?v1) ?v0)) ?v1))))
(assert (forall ((?v0 S8) (?v1 S7)) (=> (= ?v0 f11) (= (f45 f46 (f12 (f13 f14 ?v1) ?v0)) ?v1))))
(assert (forall ((?v0 S11) (?v1 S8)) (=> (= ?v0 f15) (= (f47 f48 (f16 (f17 f18 ?v1) ?v0)) ?v1))))
(assert (forall ((?v0 S2)) (= (= (f49 (f50 f7) ?v0) f1) false)))
(assert (forall ((?v0 S7)) (= (= (f51 (f52 f11) ?v0) f1) false)))
(assert (forall ((?v0 S8)) (= (= (f29 (f53 f15) ?v0) f1) false)))
(assert (forall ((?v0 S23)) (= (= (f28 (f54 ?v0) f7) f1) false)))
(assert (forall ((?v0 S24)) (= (= (f29 (f55 ?v0) f11) f1) false)))
(assert (forall ((?v0 S18)) (= (= (f30 (f56 ?v0) f15) f1) false)))
(assert (forall ((?v0 S2) (?v1 S4)) (= (f28 (f57 ?v0) (f8 (f9 f10 ?v0) ?v1)) f1)))
(assert (forall ((?v0 S8) (?v1 S11)) (= (f30 (f58 ?v0) (f16 (f17 f18 ?v0) ?v1)) f1)))
(assert (forall ((?v0 S7) (?v1 S8)) (= (f29 (f59 ?v0) (f12 (f13 f14 ?v0) ?v1)) f1)))
(assert (forall ((?v0 S2) (?v1 S4) (?v2 S2)) (= (= (f49 (f50 (f8 (f9 f10 ?v0) ?v1)) ?v2) f1) (or (= ?v0 ?v2) (= (f49 (f50 ?v1) ?v2) f1)))))
(assert (forall ((?v0 S8) (?v1 S11) (?v2 S8)) (= (= (f29 (f53 (f16 (f17 f18 ?v0) ?v1)) ?v2) f1) (or (= ?v0 ?v2) (= (f29 (f53 ?v1) ?v2) f1)))))
(assert (forall ((?v0 S7) (?v1 S8) (?v2 S7)) (= (= (f51 (f52 (f12 (f13 f14 ?v0) ?v1)) ?v2) f1) (or (= ?v0 ?v2) (= (f51 (f52 ?v1) ?v2) f1)))))
(assert (forall ((?v0 S4) (?v1 S4)) (=> (= ?v0 f7) (= (f43 f44 (f8 (f19 f40 ?v1) ?v0)) (f43 f44 ?v1)))))
(assert (forall ((?v0 S8) (?v1 S8)) (=> (= ?v0 f11) (= (f45 f46 (f12 (f21 f41 ?v1) ?v0)) (f45 f46 ?v1)))))
(assert (forall ((?v0 S11) (?v1 S11)) (=> (= ?v0 f15) (= (f47 f48 (f16 (f23 f42 ?v1) ?v0)) (f47 f48 ?v1)))))
(assert (forall ((?v0 S4) (?v1 S4)) (=> (not (= ?v0 f7)) (= (f43 f44 (f8 (f19 f40 ?v1) ?v0)) (f43 f44 ?v0)))))
(assert (forall ((?v0 S8) (?v1 S8)) (=> (not (= ?v0 f11)) (= (f45 f46 (f12 (f21 f41 ?v1) ?v0)) (f45 f46 ?v0)))))
(assert (forall ((?v0 S11) (?v1 S11)) (=> (not (= ?v0 f15)) (= (f47 f48 (f16 (f23 f42 ?v1) ?v0)) (f47 f48 ?v0)))))
(assert (forall ((?v0 S4) (?v1 S4)) (= (f43 f44 (f8 (f19 f40 ?v0) ?v1)) (ite (= ?v1 f7) (f43 f44 ?v0) (f43 f44 ?v1)))))
(assert (forall ((?v0 S8) (?v1 S8)) (= (f45 f46 (f12 (f21 f41 ?v0) ?v1)) (ite (= ?v1 f11) (f45 f46 ?v0) (f45 f46 ?v1)))))
(assert (forall ((?v0 S11) (?v1 S11)) (= (f47 f48 (f16 (f23 f42 ?v0) ?v1)) (ite (= ?v1 f15) (f47 f48 ?v0) (f47 f48 ?v1)))))
(assert (forall ((?v0 S11) (?v1 S11)) (= (= (f30 (f39 ?v0) ?v1) f1) (= ?v0 ?v1))))
(assert (forall ((?v0 S8) (?v1 S8)) (= (= (f29 (f38 ?v0) ?v1) f1) (= ?v0 ?v1))))
(assert (forall ((?v0 S4) (?v1 S4)) (= (= (f28 (f37 ?v0) ?v1) f1) (= ?v0 ?v1))))
(assert (forall ((?v0 S11) (?v1 S11) (?v2 S11)) (let ((?v_0 (f23 f42 ?v0))) (= (f16 (f23 f42 (f16 ?v_0 ?v1)) ?v2) (f16 ?v_0 (f16 (f23 f42 ?v1) ?v2))))))
(assert (forall ((?v0 S8) (?v1 S8) (?v2 S8)) (let ((?v_0 (f21 f41 ?v0))) (= (f12 (f21 f41 (f12 ?v_0 ?v1)) ?v2) (f12 ?v_0 (f12 (f21 f41 ?v1) ?v2))))))
(assert (forall ((?v0 S4) (?v1 S4) (?v2 S4)) (let ((?v_0 (f19 f40 ?v0))) (= (f8 (f19 f40 (f8 ?v_0 ?v1)) ?v2) (f8 ?v_0 (f8 (f19 f40 ?v1) ?v2))))))
(assert (forall ((?v0 S11) (?v1 S11) (?v2 S11) (?v3 S11)) (= (= (f16 (f23 f42 ?v0) ?v1) (f16 (f23 f42 ?v2) ?v3)) (exists ((?v4 S11)) (let ((?v_0 (f23 f42 ?v4))) (or (and (= ?v0 (f16 (f23 f42 ?v2) ?v4)) (= (f16 ?v_0 ?v1) ?v3)) (and (= (f16 (f23 f42 ?v0) ?v4) ?v2) (= ?v1 (f16 ?v_0 ?v3)))))))))
(assert (forall ((?v0 S8) (?v1 S8) (?v2 S8) (?v3 S8)) (= (= (f12 (f21 f41 ?v0) ?v1) (f12 (f21 f41 ?v2) ?v3)) (exists ((?v4 S8)) (let ((?v_0 (f21 f41 ?v4))) (or (and (= ?v0 (f12 (f21 f41 ?v2) ?v4)) (= (f12 ?v_0 ?v1) ?v3)) (and (= (f12 (f21 f41 ?v0) ?v4) ?v2) (= ?v1 (f12 ?v_0 ?v3)))))))))
(assert (forall ((?v0 S4) (?v1 S4) (?v2 S4) (?v3 S4)) (= (= (f8 (f19 f40 ?v0) ?v1) (f8 (f19 f40 ?v2) ?v3)) (exists ((?v4 S4)) (let ((?v_0 (f19 f40 ?v4))) (or (and (= ?v0 (f8 (f19 f40 ?v2) ?v4)) (= (f8 ?v_0 ?v1) ?v3)) (and (= (f8 (f19 f40 ?v0) ?v4) ?v2) (= ?v1 (f8 ?v_0 ?v3)))))))))
(assert (forall ((?v0 S11) (?v1 S11) (?v2 S11)) (let ((?v_0 (f23 f42 ?v0))) (= (= (f16 ?v_0 ?v1) (f16 ?v_0 ?v2)) (= ?v1 ?v2)))))
(assert (forall ((?v0 S8) (?v1 S8) (?v2 S8)) (let ((?v_0 (f21 f41 ?v0))) (= (= (f12 ?v_0 ?v1) (f12 ?v_0 ?v2)) (= ?v1 ?v2)))))
(assert (forall ((?v0 S4) (?v1 S4) (?v2 S4)) (let ((?v_0 (f19 f40 ?v0))) (= (= (f8 ?v_0 ?v1) (f8 ?v_0 ?v2)) (= ?v1 ?v2)))))
(assert (forall ((?v0 S11) (?v1 S11) (?v2 S11)) (= (= (f16 (f23 f42 ?v0) ?v1) (f16 (f23 f42 ?v2) ?v1)) (= ?v0 ?v2))))
(assert (forall ((?v0 S8) (?v1 S8) (?v2 S8)) (= (= (f12 (f21 f41 ?v0) ?v1) (f12 (f21 f41 ?v2) ?v1)) (= ?v0 ?v2))))
(assert (forall ((?v0 S4) (?v1 S4) (?v2 S4)) (= (= (f8 (f19 f40 ?v0) ?v1) (f8 (f19 f40 ?v2) ?v1)) (= ?v0 ?v2))))
(assert (forall ((?v0 S11) (?v1 S11) (?v2 S11) (?v3 S11) (?v4 S11)) (let ((?v_0 (f23 f42 ?v0))) (=> (= (f16 ?v_0 ?v1) ?v2) (=> (= ?v3 (f16 (f23 f42 ?v1) ?v4)) (= (f16 ?v_0 ?v3) (f16 (f23 f42 ?v2) ?v4)))))))
(assert (forall ((?v0 S8) (?v1 S8) (?v2 S8) (?v3 S8) (?v4 S8)) (let ((?v_0 (f21 f41 ?v0))) (=> (= (f12 ?v_0 ?v1) ?v2) (=> (= ?v3 (f12 (f21 f41 ?v1) ?v4)) (= (f12 ?v_0 ?v3) (f12 (f21 f41 ?v2) ?v4)))))))
(assert (forall ((?v0 S4) (?v1 S4) (?v2 S4) (?v3 S4) (?v4 S4)) (let ((?v_0 (f19 f40 ?v0))) (=> (= (f8 ?v_0 ?v1) ?v2) (=> (= ?v3 (f8 (f19 f40 ?v1) ?v4)) (= (f8 ?v_0 ?v3) (f8 (f19 f40 ?v2) ?v4)))))))
(assert (forall ((?v0 S4) (?v1 S2)) (= (f43 f44 (f8 (f19 f40 ?v0) (f8 (f9 f10 ?v1) f7))) ?v1)))
(assert (forall ((?v0 S8) (?v1 S7)) (= (f45 f46 (f12 (f21 f41 ?v0) (f12 (f13 f14 ?v1) f11))) ?v1)))
(assert (forall ((?v0 S11) (?v1 S8)) (= (f47 f48 (f16 (f23 f42 ?v0) (f16 (f17 f18 ?v1) f15))) ?v1)))
(assert (forall ((?v0 S2) (?v1 S4) (?v2 S4) (?v3 S4) (?v4 S4)) (let ((?v_0 (f9 f10 ?v0))) (=> (= (f8 ?v_0 ?v1) ?v2) (=> (= ?v3 (f8 (f19 f40 ?v1) ?v4)) (= (f8 ?v_0 ?v3) (f8 (f19 f40 ?v2) ?v4)))))))
(assert (forall ((?v0 S8) (?v1 S11) (?v2 S11) (?v3 S11) (?v4 S11)) (let ((?v_0 (f17 f18 ?v0))) (=> (= (f16 ?v_0 ?v1) ?v2) (=> (= ?v3 (f16 (f23 f42 ?v1) ?v4)) (= (f16 ?v_0 ?v3) (f16 (f23 f42 ?v2) ?v4)))))))
(assert (forall ((?v0 S7) (?v1 S8) (?v2 S8) (?v3 S8) (?v4 S8)) (let ((?v_0 (f13 f14 ?v0))) (=> (= (f12 ?v_0 ?v1) ?v2) (=> (= ?v3 (f12 (f21 f41 ?v1) ?v4)) (= (f12 ?v_0 ?v3) (f12 (f21 f41 ?v2) ?v4)))))))
(assert (forall ((?v0 S2) (?v1 S4) (?v2 S4)) (let ((?v_0 (f9 f10 ?v0))) (= (f8 (f19 f40 (f8 ?v_0 ?v1)) ?v2) (f8 ?v_0 (f8 (f19 f40 ?v1) ?v2))))))
(assert (forall ((?v0 S8) (?v1 S11) (?v2 S11)) (let ((?v_0 (f17 f18 ?v0))) (= (f16 (f23 f42 (f16 ?v_0 ?v1)) ?v2) (f16 ?v_0 (f16 (f23 f42 ?v1) ?v2))))))
(assert (forall ((?v0 S7) (?v1 S8) (?v2 S8)) (let ((?v_0 (f13 f14 ?v0))) (= (f12 (f21 f41 (f12 ?v_0 ?v1)) ?v2) (f12 ?v_0 (f12 (f21 f41 ?v1) ?v2))))))
(assert (forall ((?v0 S4) (?v1 S4)) (=> (= ?v0 ?v1) (= ?v0 (f8 (f19 f40 f7) ?v1)))))
(assert (forall ((?v0 S8) (?v1 S8)) (=> (= ?v0 ?v1) (= ?v0 (f12 (f21 f41 f11) ?v1)))))
(assert (forall ((?v0 S11) (?v1 S11)) (=> (= ?v0 ?v1) (= ?v0 (f16 (f23 f42 f15) ?v1)))))
(assert (forall ((?v0 S4) (?v1 S4)) (= (= (f8 (f19 f40 ?v0) ?v1) ?v1) (= ?v0 f7))))
(assert (forall ((?v0 S8) (?v1 S8)) (= (= (f12 (f21 f41 ?v0) ?v1) ?v1) (= ?v0 f11))))
(assert (forall ((?v0 S11) (?v1 S11)) (= (= (f16 (f23 f42 ?v0) ?v1) ?v1) (= ?v0 f15))))
(assert (forall ((?v0 S4) (?v1 S4)) (= (= (f8 (f19 f40 ?v0) ?v1) ?v0) (= ?v1 f7))))
(assert (forall ((?v0 S8) (?v1 S8)) (= (= (f12 (f21 f41 ?v0) ?v1) ?v0) (= ?v1 f11))))
(assert (forall ((?v0 S11) (?v1 S11)) (= (= (f16 (f23 f42 ?v0) ?v1) ?v0) (= ?v1 f15))))
(assert (forall ((?v0 S4) (?v1 S4)) (= (= (f8 (f19 f40 ?v0) ?v1) f7) (and (= ?v0 f7) (= ?v1 f7)))))
(assert (forall ((?v0 S8) (?v1 S8)) (= (= (f12 (f21 f41 ?v0) ?v1) f11) (and (= ?v0 f11) (= ?v1 f11)))))
(assert (forall ((?v0 S11) (?v1 S11)) (= (= (f16 (f23 f42 ?v0) ?v1) f15) (and (= ?v0 f15) (= ?v1 f15)))))
(assert (forall ((?v0 S4) (?v1 S4)) (= (= ?v0 (f8 (f19 f40 ?v1) ?v0)) (= ?v1 f7))))
(assert (forall ((?v0 S8) (?v1 S8)) (= (= ?v0 (f12 (f21 f41 ?v1) ?v0)) (= ?v1 f11))))
(assert (forall ((?v0 S11) (?v1 S11)) (= (= ?v0 (f16 (f23 f42 ?v1) ?v0)) (= ?v1 f15))))
(assert (forall ((?v0 S4) (?v1 S4)) (= (= ?v0 (f8 (f19 f40 ?v0) ?v1)) (= ?v1 f7))))
(assert (forall ((?v0 S8) (?v1 S8)) (= (= ?v0 (f12 (f21 f41 ?v0) ?v1)) (= ?v1 f11))))
(assert (forall ((?v0 S11) (?v1 S11)) (= (= ?v0 (f16 (f23 f42 ?v0) ?v1)) (= ?v1 f15))))
(assert (forall ((?v0 S4)) (= (f8 (f19 f40 ?v0) f7) ?v0)))
(assert (forall ((?v0 S8)) (= (f12 (f21 f41 ?v0) f11) ?v0)))
(assert (forall ((?v0 S11)) (= (f16 (f23 f42 ?v0) f15) ?v0)))
(assert (forall ((?v0 S4) (?v1 S4)) (= (= f7 (f8 (f19 f40 ?v0) ?v1)) (and (= ?v0 f7) (= ?v1 f7)))))
(assert (forall ((?v0 S8) (?v1 S8)) (= (= f11 (f12 (f21 f41 ?v0) ?v1)) (and (= ?v0 f11) (= ?v1 f11)))))
(assert (forall ((?v0 S11) (?v1 S11)) (= (= f15 (f16 (f23 f42 ?v0) ?v1)) (and (= ?v0 f15) (= ?v1 f15)))))
(assert (forall ((?v0 S4)) (= (f8 (f19 f40 f7) ?v0) ?v0)))
(assert (forall ((?v0 S8)) (= (f12 (f21 f41 f11) ?v0) ?v0)))
(assert (forall ((?v0 S11)) (= (f16 (f23 f42 f15) ?v0) ?v0)))
(assert (forall ((?v0 S4)) (=> (not (= ?v0 f7)) (= (f8 (f19 f40 (f8 f34 ?v0)) (f8 (f9 f10 (f43 f44 ?v0)) f7)) ?v0))))
(assert (forall ((?v0 S8)) (=> (not (= ?v0 f11)) (= (f12 (f21 f41 (f12 f35 ?v0)) (f12 (f13 f14 (f45 f46 ?v0)) f11)) ?v0))))
(assert (forall ((?v0 S11)) (=> (not (= ?v0 f15)) (= (f16 (f23 f42 (f16 f36 ?v0)) (f16 (f17 f18 (f47 f48 ?v0)) f15)) ?v0))))
(assert (forall ((?v0 S4) (?v1 S2) (?v2 S4)) (= (= (f8 (f19 f40 ?v0) (f8 (f9 f10 ?v1) f7)) ?v2) (and (not (= ?v2 f7)) (and (= (f8 f34 ?v2) ?v0) (= (f43 f44 ?v2) ?v1))))))
(assert (forall ((?v0 S8) (?v1 S7) (?v2 S8)) (= (= (f12 (f21 f41 ?v0) (f12 (f13 f14 ?v1) f11)) ?v2) (and (not (= ?v2 f11)) (and (= (f12 f35 ?v2) ?v0) (= (f45 f46 ?v2) ?v1))))))
(assert (forall ((?v0 S11) (?v1 S8) (?v2 S11)) (= (= (f16 (f23 f42 ?v0) (f16 (f17 f18 ?v1) f15)) ?v2) (and (not (= ?v2 f15)) (and (= (f16 f36 ?v2) ?v0) (= (f47 f48 ?v2) ?v1))))))
(check-sat)
(exit)
